
Starting CP-SAT solver v9.14.6206
Parameters: log_search_progress: true relative_gap_limit: 0
Setting number of workers to 20

Initial optimization model '': (model_fingerprint: 0xe6d8cc425f18f09b)
#Variables: 201 (#ints: 1 in objective) (200 primary variables)
  - 201 in [0,5109]
#kInterval: 100
#kLinear1: 10
#kLinear2: 100
#kNoOverlap: 10 (#intervals: 100)

Starting presolve at 0.00s
  5.86e-05s  0.00e+00d  [DetectDominanceRelations] 
  1.26e-03s  0.00e+00d  [operations_research::sat::CpModelPresolver::PresolveToFixPoint] #num_loops=10 #num_dual_strengthening=1 
  6.40e-06s  0.00e+00d  [operations_research::sat::CpModelPresolver::ExtractEncodingFromLinear] 
  2.46e-05s  0.00e+00d  [operations_research::sat::CpModelPresolver::DetectDuplicateColumns] 
  6.13e-05s  0.00e+00d  [operations_research::sat::CpModelPresolver::DetectDuplicateConstraints] 
[Symmetry] Graph for symmetry has 502 nodes and 491 arcs.
[Symmetry] Symmetry computation done. time: 4.32e-05 dtime: 4.668e-05
  4.68e-05s  0.00e+00d  [operations_research::sat::CpModelPresolver::DetectDuplicateConstraintsWithDifferentEnforcements] 
  5.03e-04s  1.51e-06d  [operations_research::sat::CpModelPresolver::Probe] 
  8.50e-06s  0.00e+00d  [MaxClique] 
  4.31e-05s  0.00e+00d  [DetectDominanceRelations] 
  2.42e-04s  0.00e+00d  [operations_research::sat::CpModelPresolver::PresolveToFixPoint] #num_loops=1 #num_dual_strengthening=1 
  2.52e-05s  0.00e+00d  [operations_research::sat::CpModelPresolver::ProcessAtMostOneAndLinear] 
  4.39e-05s  0.00e+00d  [operations_research::sat::CpModelPresolver::DetectDuplicateConstraints] 
  4.18e-05s  0.00e+00d  [operations_research::sat::CpModelPresolver::DetectDuplicateConstraintsWithDifferentEnforcements] 
  3.06e-05s  6.00e-07d  [operations_research::sat::CpModelPresolver::DetectDominatedLinearConstraints] #relevant_constraints=100 
  2.43e-05s  0.00e+00d  [operations_research::sat::CpModelPresolver::DetectDifferentVariables] 
  2.90e-06s  0.00e+00d  [operations_research::sat::CpModelPresolver::ProcessSetPPC] 
  3.90e-06s  0.00e+00d  [operations_research::sat::CpModelPresolver::FindAlmostIdenticalLinearConstraints] 
  6.90e-06s  0.00e+00d  [operations_research::sat::CpModelPresolver::FindBigAtMostOneAndLinearOverlap] 
  2.12e-05s  3.60e-06d  [operations_research::sat::CpModelPresolver::FindBigVerticalLinearOverlap] 
  3.00e-06s  0.00e+00d  [operations_research::sat::CpModelPresolver::FindBigHorizontalLinearOverlap] 
  5.00e-06s  0.00e+00d  [operations_research::sat::CpModelPresolver::MergeClauses] 
  3.12e-05s  0.00e+00d  [DetectDominanceRelations] 
  2.00e-04s  0.00e+00d  [operations_research::sat::CpModelPresolver::PresolveToFixPoint] #num_loops=1 #num_dual_strengthening=1 
  2.94e-05s  0.00e+00d  [DetectDominanceRelations] 
  1.96e-04s  0.00e+00d  [operations_research::sat::CpModelPresolver::PresolveToFixPoint] #num_loops=1 #num_dual_strengthening=1 
  1.08e-05s  0.00e+00d  [operations_research::sat::CpModelPresolver::DetectDuplicateColumns] 
  4.26e-05s  0.00e+00d  [operations_research::sat::CpModelPresolver::DetectDuplicateConstraints] 
[Symmetry] Graph for symmetry has 502 nodes and 491 arcs.
[Symmetry] Symmetry computation done. time: 2.99e-05 dtime: 4.668e-05
  4.51e-05s  0.00e+00d  [operations_research::sat::CpModelPresolver::DetectDuplicateConstraintsWithDifferentEnforcements] 
  3.65e-04s  1.51e-06d  [operations_research::sat::CpModelPresolver::Probe] 
  3.10e-06s  0.00e+00d  [MaxClique] 
  3.07e-05s  0.00e+00d  [DetectDominanceRelations] 
  2.05e-04s  0.00e+00d  [operations_research::sat::CpModelPresolver::PresolveToFixPoint] #num_loops=1 #num_dual_strengthening=1 
  2.30e-05s  0.00e+00d  [operations_research::sat::CpModelPresolver::ProcessAtMostOneAndLinear] 
  4.19e-05s  0.00e+00d  [operations_research::sat::CpModelPresolver::DetectDuplicateConstraints] 
  4.08e-05s  0.00e+00d  [operations_research::sat::CpModelPresolver::DetectDuplicateConstraintsWithDifferentEnforcements] 
  2.33e-05s  6.00e-07d  [operations_research::sat::CpModelPresolver::DetectDominatedLinearConstraints] #relevant_constraints=100 
  2.08e-05s  0.00e+00d  [operations_research::sat::CpModelPresolver::DetectDifferentVariables] 
  2.20e-06s  0.00e+00d  [operations_research::sat::CpModelPresolver::ProcessSetPPC] 
  3.60e-06s  0.00e+00d  [operations_research::sat::CpModelPresolver::FindAlmostIdenticalLinearConstraints] 
  6.00e-06s  0.00e+00d  [operations_research::sat::CpModelPresolver::FindBigAtMostOneAndLinearOverlap] 
  1.65e-05s  3.60e-06d  [operations_research::sat::CpModelPresolver::FindBigVerticalLinearOverlap] 
  1.90e-06s  0.00e+00d  [operations_research::sat::CpModelPresolver::FindBigHorizontalLinearOverlap] 
  3.00e-06s  0.00e+00d  [operations_research::sat::CpModelPresolver::MergeClauses] 
  3.22e-05s  0.00e+00d  [DetectDominanceRelations] 
  2.17e-04s  0.00e+00d  [operations_research::sat::CpModelPresolver::PresolveToFixPoint] #num_loops=1 #num_dual_strengthening=1 
  7.40e-06s  0.00e+00d  [operations_research::sat::CpModelPresolver::ExpandObjective] 

Presolve summary:
  - 100 affine relations were detected.
  - rule 'TODO dual: only one blocking constraint?' was applied 60 times.
  - rule 'TODO dual: only one unspecified blocking constraint?' was applied 6 times.
  - rule 'affine: new relation' was applied 100 times.
  - rule 'linear: always true' was applied 10 times.
  - rule 'linear: reduced variable domains' was applied 554 times.
  - rule 'linear: remapped using affine relations' was applied 200 times.
  - rule 'presolve: 0 unused variables removed.' was applied 1 time.
  - rule 'presolve: iteration' was applied 2 times.

Presolved optimization model '': (model_fingerprint: 0x562bf6a7df983aa0)
#Variables: 101 (#ints: 1 in objective) (100 primary variables)
  - 101 different domains in [0,5109] with a largest complexity of 1.
#kInterval: 100
#kLinear2: 100
#kNoOverlap: 10 (#intervals: 100)
[Symmetry] Graph for symmetry has 402 nodes and 491 arcs.
[Symmetry] Symmetry computation done. time: 2.73e-05 dtime: 4.068e-05

Preloading model.
#Bound   0.01s best:inf   next:[655,5109] initial_domain
#Model   0.01s var:101/101 constraints:210/210

Starting search at 0.01s with 20 workers.
13 full problem subsolvers: [default_lp, fixed, lb_tree_search, max_lp, no_lp, objective_lb_search, objective_shaving_max_lp, objective_shaving_no_lp, probing, pseudo_costs, quick_restart, quick_restart_no_lp, reduced_costs]
7 first solution subsolvers: [fj(2), fj_lin, fs_random, fs_random_no_lp, fs_random_quick_restart, fs_random_quick_restart_no_lp]
17 interleaved subsolvers: [feasibility_pump, graph_arc_lns, graph_cst_lns, graph_dec_lns, graph_var_lns, lb_relax_lns, ls(2), ls_lin, rins/rens, rnd_cst_lns, rnd_var_lns, scheduling_intervals_lns, scheduling_precedences_lns, scheduling_resource_windows_lns, scheduling_time_window_lns, variables_shaving]
3 helper subsolvers: [neighborhood_helper, synchronization_agent, update_gap_integral]

#1       0.01s best:1108  next:[655,1107] no_lp
#Bound   0.01s best:1108  next:[808,1107] no_lp
#2       0.01s best:1098  next:[808,1097] no_lp
#3       0.03s best:1096  next:[808,1095] no_lp
#4       0.03s best:1080  next:[808,1079] scheduling_resource_windows_lns (d=5.00e-01 s=29 t=0.10 p=0.00 stall=0 h=base)
#5       0.04s best:1077  next:[808,1076] default_lp
#Bound   0.04s best:1077  next:[814,1076] objective_shaving_no_lp (vars=100 csts=200)
#6       0.04s best:1076  next:[814,1075] quick_restart_no_lp
#7       0.04s best:1074  next:[814,1073] rnd_cst_lns (d=7.07e-01 s=40 t=0.10 p=1.00 stall=0 h=base)
#8       0.04s best:1046  next:[814,1045] rnd_var_lns (d=7.07e-01 s=39 t=0.10 p=1.00 stall=0 h=base)
#9       0.05s best:1041  next:[814,1040] quick_restart
#10      0.05s best:1040  next:[814,1039] no_lp
#11      0.05s best:1039  next:[814,1038] fixed
#Bound   0.06s best:1039  next:[829,1038] objective_lb_search
#Bound   0.06s best:1039  next:[834,1038] objective_lb_search
#Bound   0.06s best:1039  next:[835,1038] objective_lb_search
#Bound   0.06s best:1039  next:[836,1038] objective_lb_search
#Bound   0.06s best:1039  next:[841,1038] objective_lb_search
#12      0.06s best:1038  next:[841,1037] fixed
#Bound   0.06s best:1038  next:[844,1037] objective_lb_search
#Bound   0.06s best:1038  next:[863,1037] objective_lb_search
#Bound   0.06s best:1038  next:[864,1037] objective_lb_search
#Bound   0.06s best:1038  next:[865,1037] objective_lb_search
#13      0.06s best:1029  next:[865,1028] quick_restart_no_lp
#14      0.07s best:1028  next:[865,1027] quick_restart_no_lp
#Bound   0.08s best:1028  next:[866,1027] reduced_costs
#Bound   0.08s best:1028  next:[867,1027] objective_shaving_no_lp (vars=100 csts=200)
#Bound   0.08s best:1028  next:[868,1027] objective_shaving_max_lp (vars=100 csts=200)
#15      0.08s best:1024  next:[868,1023] no_lp
#16      0.09s best:1023  next:[868,1022] no_lp
#17      0.09s best:1022  next:[868,1021] no_lp
#18      0.09s best:1016  next:[868,1015] default_lp
#19      0.10s best:1015  next:[868,1014] no_lp
#20      0.11s best:1014  next:[868,1013] quick_restart
#21      0.11s best:1013  next:[868,1012] no_lp
#22      0.11s best:1012  next:[868,1011] no_lp
#23      0.12s best:1011  next:[868,1010] no_lp
#Bound   0.12s best:1011  next:[870,1010] objective_lb_search
#24      0.15s best:996   next:[870,995]  scheduling_intervals_lns (d=5.00e-01 s=65 t=0.10 p=0.00 stall=0 h=base)
#Bound   0.15s best:996   next:[871,995]  reduced_costs
#25      0.17s best:993   next:[871,992]  quick_restart_no_lp
#26      0.17s best:992   next:[871,991]  quick_restart_no_lp
#Bound   0.17s best:992   next:[872,991]  reduced_costs
#27      0.18s best:990   next:[872,989]  quick_restart_no_lp
#28      0.18s best:988   next:[872,987]  quick_restart_no_lp
#29      0.19s best:987   next:[872,986]  quick_restart_no_lp
#Bound   0.19s best:987   next:[873,986]  reduced_costs
#Bound   0.20s best:987   next:[874,986]  reduced_costs
#30      0.21s best:986   next:[874,985]  graph_dec_lns (d=8.76e-01 s=79 t=0.10 p=1.00 stall=0 h=base) [hint]
#31      0.21s best:985   next:[874,984]  ls_restart_compound(batch:1 lin{mvs:0 evals:0} #w_updates:0 #perturb:0)
#32      0.22s best:976   next:[874,975]  graph_cst_lns (d=8.76e-01 s=78 t=0.10 p=1.00 stall=0 h=base)
#33      0.23s best:969   next:[874,968]  scheduling_resource_windows_lns (d=8.76e-01 s=82 t=0.10 p=1.00 stall=0 h=base)
#34      0.25s best:965   next:[874,964]  rins_pump_lns (d=5.00e-01 s=89 t=0.10 p=0.00 stall=0 h=base)
#35      0.27s best:950   next:[874,949]  rnd_cst_lns (d=9.14e-01 s=91 t=0.10 p=1.00 stall=0 h=base)
#Bound   0.27s best:950   next:[875,949]  reduced_costs
#36      0.28s best:946   next:[875,945]  quick_restart
#37      0.28s best:945   next:[875,944]  quick_restart
#38      0.52s best:939   next:[882,938]  quick_restart_no_lp
#39      0.52s best:937   next:[882,936]  quick_restart_no_lp
#40      0.76s best:935   next:[886,934]  graph_cst_lns (d=9.56e-01 s=122 t=0.10 p=1.00 stall=0 h=base)
#41      0.78s best:930   next:[886,929]  graph_dec_lns (d=9.56e-01 s=123 t=0.10 p=1.00 stall=0 h=base)
#Bound   0.92s best:930   next:[888,929]  reduced_costs [skipped_logs=12]
#Bound   1.87s best:930   next:[898,929]  reduced_costs [skipped_logs=9]
#Done    2.51s no_lp
#Done    2.52s probing
#Bound   2.51s best:930   next:[901,929]  reduced_costs [skipped_logs=2]

Task timing                                  n [     min,      max]      avg      dev     time         n [     min,      max]      avg      dev    dtime
                       'default_lp':         1 [   2.51s,    2.51s]    2.51s   0.00ns    2.51s         1 [481.11ms, 481.11ms] 481.11ms   0.00ns 481.11ms
                 'feasibility_pump':        14 [ 77.80us,   1.59ms] 251.14us 418.89us   3.52ms        13 [ 13.78us,  73.96us]  18.41us  16.04us 239.27us
                            'fixed':         1 [   2.51s,    2.51s]    2.51s   0.00ns    2.51s         1 [270.05ms, 270.05ms] 270.05ms   0.00ns 270.05ms
                               'fj':         0 [  0.00ns,   0.00ns]   0.00ns   0.00ns   0.00ns         0 [  0.00ns,   0.00ns]   0.00ns   0.00ns   0.00ns
                               'fj':         1 [108.96ms, 108.96ms] 108.96ms   0.00ns 108.96ms         1 [100.03ms, 100.03ms] 100.03ms   0.00ns 100.03ms
                           'fj_lin':         0 [  0.00ns,   0.00ns]   0.00ns   0.00ns   0.00ns         0 [  0.00ns,   0.00ns]   0.00ns   0.00ns   0.00ns
                        'fs_random':         1 [156.90us, 156.90us] 156.90us   0.00ns 156.90us         0 [  0.00ns,   0.00ns]   0.00ns   0.00ns   0.00ns
                  'fs_random_no_lp':         1 [192.20us, 192.20us] 192.20us   0.00ns 192.20us         0 [  0.00ns,   0.00ns]   0.00ns   0.00ns   0.00ns
          'fs_random_quick_restart':         1 [121.10us, 121.10us] 121.10us   0.00ns 121.10us         0 [  0.00ns,   0.00ns]   0.00ns   0.00ns   0.00ns
    'fs_random_quick_restart_no_lp':         1 [154.90us, 154.90us] 154.90us   0.00ns 154.90us         0 [  0.00ns,   0.00ns]   0.00ns   0.00ns   0.00ns
                    'graph_arc_lns':        10 [  2.66ms, 934.72ms] 147.64ms 277.65ms    1.48s        10 [ 11.86us, 100.03ms]  14.01ms  29.63ms 140.05ms
                    'graph_cst_lns':         9 [531.90us,    1.10s] 167.64ms 345.61ms    1.51s         8 [  1.60us, 100.00ms]  16.57ms  32.98ms 132.54ms
                    'graph_dec_lns':         9 [  3.23ms,    1.26s] 159.24ms 389.67ms    1.43s         9 [  1.23us, 100.02ms]  12.39ms  31.07ms 111.54ms
                    'graph_var_lns':        10 [  3.47ms, 759.50ms] 143.36ms 232.85ms    1.43s        10 [  1.70us,  75.45ms]  12.90ms  22.61ms 129.00ms
                     'lb_relax_lns':         6 [ 13.71ms,    2.31s] 401.60ms 851.63ms    2.41s         6 [537.96us, 263.47ms]  45.28ms  97.58ms 271.67ms
                   'lb_tree_search':         1 [   2.50s,    2.50s]    2.50s   0.00ns    2.50s         0 [  0.00ns,   0.00ns]   0.00ns   0.00ns   0.00ns
                               'ls':        14 [  4.35ms, 160.66ms]  94.96ms  43.10ms    1.33s        14 [  3.70ms, 100.04ms]  79.88ms  34.26ms    1.12s
                               'ls':        14 [116.60us, 136.92ms]  99.56ms  34.41ms    1.39s        13 [ 36.02ms, 100.12ms]  95.11ms  17.06ms    1.24s
                           'ls_lin':        12 [ 99.67ms, 135.57ms] 116.92ms  12.39ms    1.40s        12 [100.00ms, 100.04ms] 100.01ms  10.83us    1.20s
                           'max_lp':         1 [   2.51s,    2.51s]    2.51s   0.00ns    2.51s         1 [459.42ms, 459.42ms] 459.42ms   0.00ns 459.42ms
                            'no_lp':         1 [   2.51s,    2.51s]    2.51s   0.00ns    2.51s         1 [252.97ms, 252.97ms] 252.97ms   0.00ns 252.97ms
              'objective_lb_search':         1 [   2.51s,    2.51s]    2.51s   0.00ns    2.51s         1 [349.37ms, 349.37ms] 349.37ms   0.00ns 349.37ms
         'objective_shaving_max_lp':        15 [458.20us,  16.84ms]   7.37ms   3.71ms 110.58ms        12 [ 12.69us,  60.11us]  19.53us  12.43us 234.32us
          'objective_shaving_no_lp':        15 [  1.43ms,  17.80ms]   7.75ms   3.19ms 116.30ms        14 [ 12.40us,  60.11us]  22.34us  12.60us 312.77us
                          'probing':         1 [   2.51s,    2.51s]    2.51s   0.00ns    2.51s         1 [204.61ms, 204.61ms] 204.61ms   0.00ns 204.61ms
                     'pseudo_costs':         1 [   2.51s,    2.51s]    2.51s   0.00ns    2.51s         1 [448.81ms, 448.81ms] 448.81ms   0.00ns 448.81ms
                    'quick_restart':         1 [   2.51s,    2.51s]    2.51s   0.00ns    2.51s         1 [289.00ms, 289.00ms] 289.00ms   0.00ns 289.00ms
              'quick_restart_no_lp':         1 [   2.51s,    2.51s]    2.51s   0.00ns    2.51s         1 [345.55ms, 345.55ms] 345.55ms   0.00ns 345.55ms
                    'reduced_costs':         1 [   2.51s,    2.51s]    2.51s   0.00ns    2.51s         1 [264.97ms, 264.97ms] 264.97ms   0.00ns 264.97ms
                        'rins/rens':        14 [ 41.60us, 199.34ms]  26.71ms  54.80ms 374.01ms         6 [ 39.37us,  15.96ms]   4.56ms   5.56ms  27.34ms
                      'rnd_cst_lns':        11 [  3.91ms, 729.68ms] 127.24ms 229.94ms    1.40s        11 [  4.64us,  64.67ms]  10.53ms  19.91ms 115.84ms
                      'rnd_var_lns':         8 [  2.97ms,    1.09s] 177.96ms 355.57ms    1.42s         8 [  6.25us, 100.04ms]  15.81ms  32.70ms 126.47ms
         'scheduling_intervals_lns':         4 [ 40.67ms,    1.01s] 388.48ms 378.54ms    1.55s         4 [  1.61ms, 100.06ms]  34.28ms  39.33ms 137.11ms
       'scheduling_precedences_lns':         5 [ 19.79ms, 669.18ms] 345.08ms 263.06ms    1.73s         5 [602.67us,  51.67ms]  27.47ms  21.85ms 137.37ms
  'scheduling_resource_windows_lns':        14 [  2.42ms,  15.55ms]   8.23ms   3.46ms 115.15ms        12 [  6.72us, 577.94us] 100.98us 176.76us   1.21ms
       'scheduling_time_window_lns':         3 [ 52.79ms,    1.03s] 539.70ms 397.82ms    1.62s         3 [  2.73ms, 100.01ms]  51.53ms  39.72ms 154.59ms
                'variables_shaving':         5 [ 11.69ms, 763.29ms] 316.74ms 358.47ms    1.58s         5 [348.54us, 100.07ms]  41.03ms  48.20ms 205.14ms

Search stats                        Bools  Conflicts  Branches  Restarts  BoolPropag  IntegerPropag
                     'default_lp':  3'153      4'977    19'188     3'396   2'946'222      1'491'578
                          'fixed':  1'295      6'345     9'946       208     929'067        799'601
                      'fs_random':      0          0         0         0           0              0
                'fs_random_no_lp':      0          0         0         0           0              0
        'fs_random_quick_restart':      0          0         0         0           0              0
  'fs_random_quick_restart_no_lp':      0          0         0         0           0              0
                 'lb_tree_search':    450        679    15'586     4'968     292'334        514'995
                         'max_lp':  2'705      3'800    14'820     1'452   1'378'121        919'019
                          'no_lp':    697      4'258    18'584     2'008     556'571      1'320'554
            'objective_lb_search':  1'695      5'892    24'703       526   1'701'834      1'187'413
                        'probing':    795      2'206    11'145     6'037     432'191        673'915
                   'pseudo_costs':  2'655      3'549    20'544     1'404   1'547'996        825'613
                  'quick_restart':  1'842      2'988    17'216     1'662   1'157'830      1'277'355
            'quick_restart_no_lp':  2'269      3'461    20'045     1'553   1'509'443      1'499'960
                  'reduced_costs':    483        744    13'190     5'447     188'841        344'029

SAT stats                           ClassicMinim  LitRemoved  LitLearned  LitForgotten  Subsumed  MClauses  MDecisions  MLitTrue  MSubsumed  MLitRemoved  MReused
                     'default_lp':         3'567      15'233      27'364             0        17     3'236       6'656       842      1'465       12'713      966
                          'fixed':         5'151      20'997     122'723             0        48         0           0         0          0            0        0
                      'fs_random':             0           0           0             0         0         0           0         0          0            0        0
                'fs_random_no_lp':             0           0           0             0         0         0           0         0          0            0        0
        'fs_random_quick_restart':             0           0           0             0         0         0           0         0          0            0        0
  'fs_random_quick_restart_no_lp':             0           0           0             0         0         0           0         0          0            0        0
                 'lb_tree_search':           484       3'242       6'490             0        23       765       2'247         1        145          875       68
                         'max_lp':         2'911      10'602      27'771             0        32     1'284       2'607         0        459        2'594    1'674
                          'no_lp':         3'978      22'549      38'596             0        41     1'036       3'869         0        405        2'458      113
            'objective_lb_search':         5'463      29'560      26'621             0        30       365         823         0         93          470      267
                        'probing':         1'806      16'708      24'759             0        20       116         489        27         60          712        2
                   'pseudo_costs':         2'511       7'741      24'855             0        12     1'279       1'734        61        217        1'366    2'431
                  'quick_restart':         2'716      17'575      27'019             0        11       847       2'394         0        289        1'411      213
            'quick_restart_no_lp':         3'029      19'437      31'469             0        10       637       1'778         3        179          896      167
                  'reduced_costs':           562       4'753       3'237             0        26        50         140         0         36          171        0

Lp stats                  Component  Iterations  AddedCuts  OPTIMAL  DUAL_F.  DUAL_U.
           'default_lp':          1           0          0    9'446        0        0
                'fixed':          1           0          0   35'234        0        0
       'lb_tree_search':          1      17'929        409    6'877      304        0
               'max_lp':          1      16'766      1'157    8'315      349        0
  'objective_lb_search':          1           0          0   19'459        0        0
              'probing':          1           0          0   23'882        0        0
         'pseudo_costs':          1      14'500      1'241    7'388      252        0
        'quick_restart':          1           0          0   18'700        0        0
        'reduced_costs':          1      12'014      1'313    3'451      272        0

Lp dimension              Final dimension of first component
           'default_lp':      0 rows, 101 columns, 0 entries
                'fixed':      0 rows, 101 columns, 0 entries
       'lb_tree_search':  137 rows, 101 columns, 371 entries
               'max_lp':  140 rows, 101 columns, 419 entries
  'objective_lb_search':      0 rows, 101 columns, 0 entries
              'probing':      0 rows, 101 columns, 0 entries
         'pseudo_costs':  129 rows, 101 columns, 369 entries
        'quick_restart':      0 rows, 101 columns, 0 entries
        'reduced_costs':  197 rows, 101 columns, 673 entries

Lp debug                  CutPropag  CutEqPropag  Adjust  Overflow     Bad  BadScaling
           'default_lp':          0            0       0         0       0           0
                'fixed':          0            0       0         0       0           0
       'lb_tree_search':          0           12       0         0   7'347           0
               'max_lp':          0            0       0         0   4'348           0
  'objective_lb_search':          0            0       0         0       0           0
              'probing':          0            0       0         0       0           0
         'pseudo_costs':          0           14       0         0   3'986           0
        'quick_restart':          0            0       0         0       0           0
        'reduced_costs':          0           55       0         0  13'776           0

Lp pool                   Constraints  Updates  Simplif  Merged  Shortened  Split  Strenghtened    Cuts/Call
           'default_lp':          100        0        0       0          0      0             0          0/0
                'fixed':          100        0        0       0          0      0             0          0/0
       'lb_tree_search':          498      958      106      11          0      1             5      409/621
               'max_lp':        1'028      628      832     229          0      0             6  1'157/1'811
  'objective_lb_search':          100        0        0       0          0      0             0          0/0
              'probing':          100        0        0       0          0      0             0          0/0
         'pseudo_costs':        1'078      654    1'310     263          0      0            17  1'241/1'878
        'quick_restart':          100        0        0       0          0      0             0          0/0
        'reduced_costs':        1'286    1'123    3'152     127          0      5            20  1'313/2'334

Lp Cut                                                lb_tree_search  max_lp  reduced_costs  pseudo_costs
                                              CG_FF:               -       1              3             -
                                               CG_K:               -       3             14             6
                                               CG_R:               3      18             70            33
                                            MIR_1_K:               1       -              3             1
                                            MIR_1_R:               1       5             11            12
                                            MIR_2_K:               -       1              3             1
                                            MIR_2_R:               -       3              6             -
                                            MIR_3_K:               -       -              1             3
                                            MIR_3_R:               -       -              4             1
                                            MIR_4_K:               -       -              1             -
                                            MIR_4_R:               -       2              3             1
                                            MIR_5_K:               -       -              1             -
                                            MIR_5_R:               -       -              -             1
                                            MIR_6_R:               -       2              2             -
                  NoOverlapCompletionTimeExhaustive:              21      69             87            68
           NoOverlapCompletionTimeExhaustive_lifted:              11      61             60            61
  NoOverlapCompletionTimeExhaustive_lifted_weighted:              51     134            158           169
         NoOverlapCompletionTimeExhaustive_weighted:              72     163            215           129
                    NoOverlapCompletionTimeQueyrane:              55     115            143           128
             NoOverlapCompletionTimeQueyrane_lifted:              62     158            169           196
                        NoOverlapDetectedPrecedence:              15      42             27            34
                          NoOverlapDisjunctionOnEnd:              23     118            182           105
                        NoOverlapDisjunctionOnStart:              82     252            114           282
                                        ZERO_HALF_R:              12      10             36            10

LNS stats                             Improv/Calls  Closed  Difficulty  TimeLimit
                    'graph_arc_lns':          9/10     90%    9.73e-01       0.10
                    'graph_cst_lns':           9/9     89%    9.68e-01       0.10
                    'graph_dec_lns':           9/9     89%    9.68e-01       0.10
                    'graph_var_lns':          9/10     90%    9.76e-01       0.10
                     'lb_relax_lns':           6/6     83%    9.16e-01       0.50
                        'rins/rens':           7/7     86%    9.40e-01       0.10
                      'rnd_cst_lns':         11/11     91%    9.82e-01       0.10
                      'rnd_var_lns':           7/8     88%    9.57e-01       0.10
         'scheduling_intervals_lns':           4/4     50%    5.97e-01       0.10
       'scheduling_precedences_lns':           5/5     80%    8.80e-01       0.10
  'scheduling_resource_windows_lns':         13/14    100%    9.95e-01       0.10
       'scheduling_time_window_lns':           3/3     67%    7.21e-01       0.10

LS stats                                    Batches  Restarts/Perturbs  LinMoves  GenMoves  CompoundMoves  Bactracks  WeightUpdates  ScoreComputed
                             'fj_restart':        1                  1         0     2'343              0          0            717        490'429
                         'ls_lin_restart':        1                  1         0     2'368              0          0          1'799        487'283
                'ls_lin_restart_compound':        3                  3         0    52'541            253     26'137            914      1'332'221
        'ls_lin_restart_compound_perturb':        1                  1         0    16'361             12      8'174            255        449'313
          'ls_lin_restart_decay_compound':        1                  1         0     9'625            697      4'462             45        467'445
  'ls_lin_restart_decay_compound_perturb':        2                  2         0    21'347          1'601      9'870            108        930'184
           'ls_lin_restart_decay_perturb':        2                  2         0     8'483              0          0            476        968'811
                 'ls_lin_restart_perturb':        2                  2         0     5'110              0          0          1'735        974'306
                             'ls_restart':        5                  5         3    10'911              0          0          5'526      1'997'623
                    'ls_restart_compound':        5                  5         0    51'645            180     25'730            894      1'355'782
            'ls_restart_compound_perturb':        3                  3         0    42'363            839     20'760            550      1'360'360
                       'ls_restart_decay':        2                  2         0     6'965              0          0            466        696'540
              'ls_restart_decay_compound':        4                  4         0    36'398          2'667     16'862            290      1'686'495
      'ls_restart_decay_compound_perturb':        2                  2         0    18'571          1'853      8'355             98        938'612
               'ls_restart_decay_perturb':        3                  3         3    10'473              0          0            658      1'142'900
                     'ls_restart_perturb':        4                  4         0     9'761              0          0          5'973      1'952'018

Solutions (41)                        Num     Rank
                       'default_lp':    2   [5,18]
                            'fixed':    2  [11,12]
                    'graph_cst_lns':    2  [32,40]
                    'graph_dec_lns':    2  [30,41]
              'ls_restart_compound':    1  [31,31]
                            'no_lp':   11   [1,23]
                    'quick_restart':    4   [9,37]
              'quick_restart_no_lp':   10   [6,39]
                    'rins_pump_lns':    1  [34,34]
                      'rnd_cst_lns':    2   [7,35]
                      'rnd_var_lns':    1    [8,8]
         'scheduling_intervals_lns':    1  [24,24]
  'scheduling_resource_windows_lns':    2   [4,33]

Objective bounds               Num
            'initial_domain':    1
                     'no_lp':    1
       'objective_lb_search':   10
  'objective_shaving_max_lp':    1
   'objective_shaving_no_lp':    2
             'reduced_costs':   32

Solution repositories    Added  Queried  Synchro
  'feasible solutions':    116      255       84
   'fj solution hints':      0        0        0
        'lp solutions':     94        8       59
                'pump':     13        6

Improving bounds shared      Num  Sym
            'default_lp':    430    0
                 'fixed':    202    0
        'lb_tree_search':      6    0
                'max_lp':     15    0
                 'no_lp':  1'357    0
   'objective_lb_search':     13    0
               'probing':    475    0
          'pseudo_costs':     26    0
         'quick_restart':    740    0
   'quick_restart_no_lp':  1'376    0
         'reduced_costs':     24    0

CpSolverResponse summary:
status: OPTIMAL
objective: 930
best_bound: 930
integers: 101
booleans: 0
conflicts: 0
branches: 0
propagations: 0
integer_propagations: 0
restarts: 0
lp_iterations: 0
walltime: 2.5393
usertime: 2.5393
deterministic_time: 8.71152
gap_integral: 19.9445
solution_fingerprint: 0x6d15049b932f0007

